Name: Ing0708-2
Courses: 107
Rooms: 17
Days: 5
Periods_per_day: 5
Curricula: 62
Min_Max_Daily_Lectures: 2 3
UnavailabilityConstraints: 635
RoomConstraints: 2

COURSES:
c0007 t000 3 3 12 0
c0009 t001 3 3 16 0
c0015 t002 3 3 40 0
c0019 t003 3 3 31 0
c0020 t004 3 3 12 0
c0023 t005 3 3 111 0
c0024 t006 3 3 38 0
c0044 t007 3 3 110 0
c0047 t008 3 3 100 0
c0049 t009 3 3 55 0
c0053 t010 3 3 60 0
c0056 t011 3 3 110 0
c0058 t012 3 3 100 0
c0061 t013 3 3 55 0
c0062 t014 3 3 55 0
c0069 t010 3 3 110 0
c0072 t015 3 3 127 0
c0074 t016 3 1 13 0
c0088 t017 5 5 70 0
c0095 t018 3 3 90 0
c0103 t019 3 3 80 0
c0106 t020 3 3 193 0
c0108 t021 3 3 90 0
c0110 t012 3 3 160 0
c0113 t022 3 3 125 0
c0115 t023 3 3 182 0
c0118 t024 3 3 33 0
c0127 t025 3 3 90 0
c0178 t026 3 3 90 0
c0191 t027 3 2 80 1
c0193 t028 3 3 106 0
c0195 t011 3 3 90 0
c0201 t029 3 2 105 1
c0203 t030 3 3 75 0
c0206 t031 3 3 90 0
c0211 t032 4 3 130 0
c0213 t033 3 3 130 0
c0217 t034 3 3 98 0
c0219 t035 3 2 83 1
c0221 t036 3 3 98 0
c0225 t037 3 3 83 0
c0230 t038 3 3 113 0
c0232 t039 3 3 55 0
c0238 t040 3 3 130 0
c0252 t041 3 3 120 0
c0253 t042 3 3 85 0
c0257 t043 3 3 157 0
c0279 t031 3 3 105 0
c0411 t044 3 3 67 0
c0412 t045 3 3 25 0
c0417 t046 3 3 25 0
c0423 t044 3 3 40 0
c0428 t045 3 3 20 0
c0430 t038 3 3 68 0
c0432 t047 3 3 45 0
c0443 t048 3 3 25 0
c0444 t049 3 3 20 0
c0449 t042 3 3 20 0
c0455 t050 3 3 65 0
c0464 t051 3 2 65 0
c0467 t052 3 3 15 0
c0478 t053 3 2 53 0
c0479 t009 3 3 37 0
c0487 t054 3 3 38 0
c0496 t055 3 3 31 0
c0497 t056 3 3 15 0
c0503 t057 3 2 31 1
c0504 t058 3 3 15 0
c0512 t059 3 3 69 0
c0515 t060 3 3 99 0
c0520 t020 3 3 112 0
c0526 t022 3 3 26 0
c0530 t059 3 3 28 0
c0532 t061 3 3 26 0
c0534 t062 3 3 15 0
c0535 t063 3 3 15 0
c0537 t064 3 3 15 0
c0538 t064 3 3 15 0
c0539 t065 3 3 15 0
c0554 t066 3 3 4 0
c0722 t067 3 3 80 0
c0723 t068 3 3 10 0
c0725 t065 3 3 69 0
c0730 t008 3 3 8 0
c0737 t028 3 2 37 1
c0742 t069 3 3 35 0
c0746 t055 3 3 100 0
c0769 t070 3 3 6 0
c0789 t071 3 3 12 0
c0794 t072 3 3 8 0
c0795 t071 3 3 23 0
c0804 t073 3 3 8 0
c0807 t074 3 3 8 0
c0808 t075 3 3 24 0
c0812 t076 3 3 17 0
c0813 t076 3 3 17 0
c0822 t077 3 3 4 0
c0835 t003 3 3 25 0
c0932 t078 3 3 100 0
c0936 t067 3 3 41 0
c0998 t079 3 2 133 0
c1053 t080 3 2 23 0
c1069 t056 3 3 20 0
c1077 t063 3 3 90 0
c1184 t081 3 3 41 0
c1001 t061 3 2 67 1
c1022 t014 3 3 8 0

ROOMS:
r25 40 0
r36 42 0
r37 42 0
r38 48 0
r34 50 0
r27 65 0
B 216 0
D 216 0
F 216 0
G 216 0
A 216 0
L 216 0
N 30 0
Er1 70 0
Er2 70 0
E 216 0
r51 78 0

CURRICULA:
q000 3 c0095 c0108 c0127 
q001 4 c0103 c0110 c0113 c0722 
q002 4 c0106 c0115 c0118 c0998 
q003 4 c0106 c0115 c0998 c1077 
q005 4 c0106 c0115 c0723 c0998 
q006 3 c0211 c0213 c0238 
q007 4 c0007 c0009 c0230 c0023 
q008 3 c0230 c0023 c0217 
q009 3 c0009 c0023 c0019 
q010 4 c0015 c0019 c0020 c0024 
q011 4 c0019 c0088 c0221 c0253 
q012 4 c0015 c0795 c0769 c0230 
q013 3 c0044 c0056 c0069 
q014 4 c0047 c0053 c0058 c0746 
q015 4 c0049 c0061 c0062 c0742 
q016 4 c0049 c0061 c0062 c0074 
q017 4 c0049 c0061 c0062 c1069 
q018 4 c0049 c0061 c0062 c0072 
q020 4 c0217 c0219 c0023 c0230 
q021 4 c0217 c0219 c0230 c0769 
q022 4 c0221 c0225 c0232 c0088 
q023 4 c0221 c0225 c0253 c0932 
q024 2 c0225 c0221 
q025 3 c0178 c0195 c0206 
q026 4 c0252 c0191 c0110 c0193 
q027 4 c0257 c0515 c0201 c0203 
q028 4 c0257 c0515 c0201 c0467 
q029 4 c0257 c0515 c0201 c0106 
q031 4 c0252 c0058 c0047 c0746 
q032 4 c0257 c0201 c0072 c0203 
q033 3 c0257 c0201 c0072 
q034 4 c0257 c0201 c0072 c0279 
q035 4 c0455 c0478 c1184 c0503 
q036 5 c0455 c0478 c1184 c0503 c0279 
q037 4 c0115 c0279 c0455 c0106 
q038 4 c0115 c0279 c0455 c0467 
q039 3 c0464 c0496 c0279 
q040 2 c0464 c0496 
q041 4 c0464 c0072 c0520 c0113 
q042 2 c0464 c0554 
q043 5 c0411 c0412 c0088 c0417 c0932 
q044 6 c0411 c0932 c0432 c0232 c0015 c0443 
q045 5 c0423 c0428 c0430 c0253 c0432 
q046 4 c0444 c0423 c0430 c0449 
q047 3 c0478 c0479 c0074 
q048 4 c0478 c0479 c0497 c1069 
q049 4 c0478 c0479 c0072 c0737 
q050 4 c0487 c0737 c0730 c1053 
q051 5 c0487 c0737 c0496 c1053 c0279 
q052 4 c0487 c0504 c0503 c0279 
q053 5 c0512 c0725 c0193 c0515 c0936 
q054 4 c0512 c0725 c0430 c0530 
q055 5 c0512 c0725 c0535 c0539 c0936 
q056 5 c0520 c1001 c0072 c0257 c0526 
q057 5 c0520 c1001 c0257 c0024 c0532 
q058 5 c0520 c1001 c0534 c0537 c0538 
q059 6 c1184 c0794 c0795 c0467 c0835 c1022 
q060 5 c1184 c0812 c0813 c0411 c0835 
q061 6 c1184 c0795 c0411 c0812 c0813 c0835 
q062 3 c0804 c0807 c0808 
q063 2 c0808 c0822 
q064 2 c0789 c0808 

UNAVAILABILITY_CONSTRAINTS:
c0007 0 0
c0007 0 4
c0007 1 0
c0007 1 4
c0007 2 0
c0007 2 4
c0007 3 0
c0007 4 0
c0015 0 0
c0015 0 2
c0015 1 0
c0015 1 2
c0015 2 0
c0015 2 2
c0015 3 2
c0015 4 2
c0019 0 0
c0019 0 1
c0019 0 2
c0019 0 3
c0019 0 4
c0019 2 0
c0019 2 1
c0019 2 2
c0020 0 0
c0020 0 1
c0020 1 0
c0020 2 0
c0020 3 0
c0020 4 0
c0020 4 2
c0020 4 3
c0020 4 4
c0044 0 0
c0044 3 0
c0044 3 4
c0044 4 0
c0044 4 1
c0044 4 2
c0044 4 3
c0044 4 4
c0047 0 0
c0047 0 1
c0047 0 2
c0047 0 3
c0047 0 4
c0047 4 2
c0047 4 3
c0047 4 4
c0049 0 0
c0049 0 1
c0049 0 2
c0049 0 3
c0049 0 4
c0049 4 2
c0049 4 3
c0049 4 4
c0053 4 0
c0053 4 1
c0053 4 2
c0053 4 3
c0053 4 4
c0056 0 2
c0056 0 3
c0056 0 4
c0056 1 2
c0056 1 3
c0056 1 4
c0056 2 2
c0056 2 3
c0056 2 4
c0056 3 2
c0056 3 3
c0056 3 4
c0056 4 2
c0056 4 3
c0056 4 4
c0058 0 0
c0058 1 0
c0058 2 0
c0058 2 3
c0058 2 4
c0058 3 0
c0058 3 1
c0058 3 2
c0058 3 3
c0058 3 4
c0058 4 0
c0058 4 4
c0061 0 0
c0061 1 0
c0061 2 0
c0061 3 0
c0061 4 0
c0061 4 1
c0061 4 2
c0061 4 3
c0062 0 0
c0062 0 1
c0062 0 2
c0062 0 3
c0062 0 4
c0062 2 0
c0062 4 0
c0062 4 1
c0062 4 2
c0062 4 3
c0062 4 4
c0069 4 0
c0069 4 1
c0069 4 2
c0069 4 3
c0069 4 4
c0072 0 0
c0072 0 1
c0072 0 3
c0072 4 1
c0072 4 2
c0072 4 3
c0072 4 4
c0088 0 0
c0088 0 2
c0088 1 2
c0088 2 2
c0088 3 2
c0088 3 4
c0088 4 2
c0088 4 4
c0103 0 0
c0103 0 2
c0103 1 0
c0103 1 2
c0103 2 2
c0103 3 2
c0103 4 0
c0103 4 2
c0106 0 0
c0106 0 1
c0106 0 2
c0106 0 4
c0106 1 0
c0106 1 1
c0106 1 2
c0106 1 4
c0106 2 0
c0106 2 1
c0106 2 2
c0106 2 4
c0106 3 0
c0106 3 1
c0106 3 2
c0106 3 4
c0106 4 0
c0106 4 1
c0106 4 2
c0106 4 4
c0108 0 0
c0108 0 1
c0108 1 0
c0108 2 0
c0108 2 1
c0108 3 0
c0108 4 0
c0108 4 1
c0110 0 0
c0110 1 0
c0110 2 0
c0110 2 3
c0110 2 4
c0110 3 0
c0110 3 1
c0110 3 2
c0110 3 3
c0110 3 4
c0110 4 0
c0115 3 0
c0115 3 1
c0115 3 2
c0115 3 3
c0115 3 4
c0115 4 0
c0115 4 1
c0115 4 2
c0115 4 3
c0115 4 4
c0118 1 2
c0118 1 3
c0118 1 4
c0118 2 0
c0118 2 1
c0118 2 2
c0178 0 2
c0178 1 2
c0178 2 2
c0178 3 2
c0178 4 2
c0178 4 3
c0178 4 4
c0191 0 0
c0191 0 1
c0191 0 2
c0191 4 0
c0191 4 1
c0191 4 2
c0191 4 3
c0191 4 4
c0193 0 3
c0193 0 4
c0193 2 3
c0193 2 4
c0193 3 3
c0193 3 4
c0193 4 3
c0193 4 4
c0195 0 2
c0195 0 3
c0195 0 4
c0195 1 2
c0195 1 3
c0195 1 4
c0195 2 2
c0195 2 3
c0195 2 4
c0195 3 2
c0195 3 3
c0195 3 4
c0195 4 2
c0195 4 3
c0195 4 4
c0203 0 0
c0203 0 1
c0203 0 2
c0203 3 2
c0203 3 3
c0203 3 4
c0203 4 0
c0203 4 1
c0203 4 2
c0203 4 3
c0203 4 4
c0206 0 4
c0206 1 4
c0206 2 4
c0206 3 4
c0206 4 4
c0211 0 2
c0211 0 3
c0211 0 4
c0211 1 2
c0211 1 3
c0211 1 4
c0211 2 2
c0211 2 3
c0211 2 4
c0211 3 2
c0211 3 3
c0211 3 4
c0211 4 2
c0211 4 3
c0211 4 4
c0213 0 0
c0213 0 1
c0213 0 2
c0213 1 4
c0213 2 4
c0213 3 4
c0213 4 4
c0219 0 3
c0219 0 4
c0219 3 0
c0219 3 3
c0219 3 4
c0219 4 4
c0230 0 2
c0230 1 2
c0230 2 2
c0230 3 2
c0230 4 2
c0230 4 3
c0230 4 4
c0232 0 2
c0232 1 2
c0232 2 2
c0232 3 2
c0232 4 2
c0232 4 3
c0232 4 4
c0238 0 1
c0238 0 2
c0238 1 1
c0238 1 2
c0238 2 1
c0238 2 2
c0238 3 1
c0238 3 2
c0238 4 1
c0238 4 2
c0252 0 0
c0252 1 0
c0252 2 0
c0252 2 1
c0252 2 2
c0252 2 3
c0252 2 4
c0252 3 0
c0253 0 0
c0253 1 0
c0253 3 0
c0253 3 1
c0253 3 2
c0253 3 3
c0253 3 4
c0253 4 0
c0253 4 1
c0253 4 2
c0253 4 3
c0253 4 4
c0257 0 0
c0257 0 1
c0257 0 2
c0257 0 3
c0257 0 4
c0257 4 0
c0257 4 1
c0257 4 2
c0257 4 3
c0257 4 4
c0279 0 4
c0279 1 4
c0279 2 4
c0279 3 4
c0279 4 4
c0412 0 0
c0412 0 1
c0412 0 4
c0412 1 4
c0412 2 4
c0412 3 4
c0412 4 0
c0412 4 1
c0412 4 4
c0417 0 0
c0417 1 0
c0417 2 0
c0417 2 4
c0417 3 0
c0417 3 4
c0417 4 0
c0417 4 4
c0428 1 0
c0428 1 1
c0428 2 0
c0428 2 1
c0428 2 3
c0428 2 4
c0428 3 0
c0428 3 1
c0430 0 2
c0430 1 2
c0430 2 2
c0430 3 2
c0430 4 2
c0430 4 3
c0430 4 4
c0432 0 2
c0432 1 2
c0432 2 2
c0432 3 0
c0432 3 1
c0432 3 2
c0432 3 3
c0432 4 2
c0443 0 0
c0443 0 1
c0443 0 2
c0443 0 3
c0443 4 1
c0443 4 2
c0443 4 3
c0443 4 4
c0449 0 0
c0449 1 0
c0449 3 0
c0449 3 1
c0449 3 2
c0449 3 3
c0449 3 4
c0449 4 0
c0449 4 1
c0449 4 2
c0449 4 3
c0449 4 4
c0479 0 0
c0479 0 1
c0479 0 2
c0479 0 3
c0479 0 4
c0479 4 2
c0479 4 3
c0479 4 4
c0487 0 0
c0487 0 1
c0487 0 2
c0487 0 3
c0487 0 4
c0487 4 2
c0487 4 3
c0487 4 4
c0496 0 0
c0496 1 0
c0496 2 0
c0496 2 4
c0496 3 0
c0496 3 4
c0496 4 0
c0496 4 4
c0497 4 3
c0497 4 4
c0503 0 0
c0503 0 1
c0503 0 2
c0503 0 3
c0503 0 4
c0503 1 0
c0503 1 1
c0503 1 2
c0503 1 3
c0503 1 4
c0503 3 0
c0503 3 1
c0503 3 2
c0503 3 3
c0503 3 4
c0512 0 0
c0512 1 0
c0512 2 0
c0512 3 0
c0512 4 0
c0515 0 2
c0515 0 4
c0515 1 4
c0515 2 4
c0515 3 2
c0515 3 4
c0515 4 2
c0515 4 4
c0530 0 0
c0530 1 0
c0530 2 0
c0530 3 0
c0530 4 0
c0532 0 2
c0532 1 2
c0532 2 2
c0532 2 3
c0532 2 4
c0532 3 2
c0532 4 2
c0532 4 4
c0534 0 0
c0534 0 1
c0534 0 2
c0534 0 3
c0534 4 1
c0534 4 2
c0534 4 3
c0534 4 4
c0535 3 0
c0535 3 1
c0535 3 2
c0535 3 3
c0535 3 4
c0535 4 0
c0535 4 1
c0535 4 2
c0535 4 3
c0535 4 4
c0537 2 0
c0537 2 1
c0537 2 2
c0537 4 2
c0537 4 3
c0537 4 4
c0538 2 0
c0538 2 1
c0538 2 2
c0538 4 2
c0538 4 3
c0538 4 4
c0539 0 2
c0539 1 2
c0539 2 2
c0539 3 2
c0539 4 2
c0554 0 0
c0554 0 1
c0554 1 0
c0554 2 0
c0554 3 0
c0554 4 0
c0554 4 2
c0554 4 3
c0554 4 4
c0722 0 0
c0722 0 1
c0722 1 3
c0722 1 4
c0722 2 0
c0722 2 1
c0722 2 2
c0722 2 3
c0725 0 2
c0725 1 2
c0725 2 2
c0725 3 2
c0725 4 2
c0730 0 0
c0730 0 1
c0730 0 2
c0730 0 3
c0730 0 4
c0730 4 2
c0730 4 3
c0730 4 4
c0737 0 3
c0737 0 4
c0737 1 1
c0737 2 3
c0737 2 4
c0737 3 3
c0737 3 4
c0737 4 3
c0737 4 4
c0742 0 0
c0742 0 1
c0742 0 2
c0742 0 3
c0742 4 1
c0742 4 2
c0742 4 3
c0742 4 4
c0804 0 2
c0804 1 2
c0804 2 2
c0804 3 2
c0804 4 0
c0804 4 1
c0804 4 2
c0804 4 3
c0804 4 4
c0808 0 0
c0808 0 2
c0808 1 2
c0808 2 2
c0808 3 2
c0808 4 0
c0808 4 2
c0808 4 4
c0835 0 0
c0835 0 1
c0835 0 2
c0835 0 3
c0835 0 4
c0835 2 0
c0835 2 1
c0835 2 2
c0936 0 0
c0936 0 1
c0936 1 3
c0936 1 4
c0936 2 0
c0936 2 1
c0936 2 2
c0936 2 3
c0998 0 0
c0998 0 1
c0998 0 2
c0998 0 3
c0998 0 4
c0998 1 0
c0998 1 1
c0998 1 2
c0998 1 3
c0998 1 4
c0998 4 0
c0998 4 1
c0998 4 2
c0998 4 3
c0998 4 4
c1053 0 0
c1053 0 1
c1053 0 2
c1053 0 3
c1053 0 4
c1053 3 0
c1053 3 1
c1053 3 2
c1053 3 3
c1053 3 4
c1053 4 0
c1053 4 1
c1053 4 2
c1053 4 3
c1053 4 4
c1069 4 3
c1069 4 4
c1077 3 0
c1077 3 1
c1077 3 2
c1077 3 3
c1077 3 4
c1077 4 0
c1077 4 1
c1077 4 2
c1077 4 3
c1077 4 4
c1184 2 0
c1184 2 1
c1184 2 2
c1184 2 3
c1184 2 4
c1184 4 2
c1184 4 3
c1184 4 4
c1022 0 0
c1022 0 1
c1022 0 2
c1022 0 3
c1022 0 4
c1022 2 0
c1022 4 0
c1022 4 1
c1022 4 2
c1022 4 3
c1022 4 4

ROOM_CONSTRAINTS:
c0007 Er1
c0007 Er2

END.
